(set-logic HORN)
(set-info :source |
  Benchmark: test_safe_2019/termination/indirectIntro.5.ml
  Generated by MoCHi
|)
(set-info :status unknown)
(declare-fun |fail_29976[0:0]| ( Int) Bool)
(declare-fun |app_without_checking_157[0:14][0:5][0:0][0:4]| ( Bool  Int  Int  Int  Int  Bool  Int  Int  Int  Int  Bool  Int  Int  Int  Bool  Int  Int  Int  Int  Bool  Int  Int  Int  Int) Bool)
(declare-fun |app_without_checking_157[0:14][0:4]| ( Bool  Int  Int  Int  Int  Bool  Int  Int  Int  Int  Bool  Int  Int  Int  Bool  Int  Int  Int  Int) Bool)
(declare-fun |app_without_checking_157[0:24]| ( Bool  Int  Int  Int  Int  Bool  Int  Int  Int  Int  Bool  Int  Int  Int  Bool  Int  Int  Int  Int  Bool  Int  Int  Int  Int) Bool)
(declare-fun |f[0:5][0:0][0:4]| ( Bool  Int  Int  Int  Int  Bool  Int  Int  Int  Int) Bool)
(declare-fun |f[0:4]| ( Bool  Int  Int  Int  Int) Bool)
(assert (not (exists ((x0 Int)) (|fail_29976[0:0]| x0))))
(assert (forall ((x0 Int)(var224 Int)(x6 Int)(x17 Bool)(x18 Int)(x19 Int)(x20 Int)(x5 Int)(x4 Int)(x7 Int)) (=> (and (|f[0:4]| x17 x18 x19 x20 var224) (and (|f[0:5][0:0][0:4]| x17 x18 x19 x20 var224 true x5 x4 x6 x7) (and (>= var224 1) (or (<= (+ 1 x6) var224) (<= var224 0))))) (|fail_29976[0:0]| x0))))
(assert (forall ((x11 Bool)(x12 Int)(x13 Int)(x14 Int)(x15 Int)(x6 Bool)(x7 Int)(x8 Int)(x9 Int)(x10 Int)(var230 Int)(x2 Bool)(x3 Int)(x4 Int)(x5 Int)(x1 Int)(var231 Int)(var232 Int)(var233 Int)(var234 Int)) (=> (and (|app_without_checking_157[0:14][0:5][0:0][0:4]| x2 x3 x4 x5 x1 x2 x3 x4 x5 0 x2 x3 x4 x5 x11 x12 x13 x14 x15 x6 x7 x8 x9 x10) (and (|app_without_checking_157[0:14][0:4]| x2 x3 x4 x5 x1 x2 x3 x4 x5 0 x2 x3 x4 x5 x11 x12 x13 x14 x15) (and (|f[0:4]| x11 x12 x13 x14 x15) (and (|f[0:4]| x2 x3 x4 x5 var230) (and (|f[0:5][0:0][0:4]| x2 x3 x4 x5 var230 false var231 var232 var233 var234) (>= var230 1)))))) (|f[0:5][0:0][0:4]| x11 x12 x13 x14 x15 x6 x7 x8 x9 x10))))
(assert (forall ((x14 Bool)(x15 Int)(x16 Int)(x17 Int)(x18 Int)(x19 Bool)(x20 Int)(x21 Int)(x22 Int)(x23 Int)(x24 Bool)(x25 Int)(x26 Int)(x27 Int)(x28 Bool)(x29 Int)(x30 Int)(x31 Int)(x32 Int)(x9 Bool)(x10 Int)(x11 Int)(x12 Int)(x13 Int)(x8 Bool)(x7 Int)(x6 Int)(x5 Int)(x4 Bool)(x3 Int)(x2 Int)(x1 Int)(x0 Int)) (=> (and (|app_without_checking_157[0:24]| x14 x15 x16 x17 x18 x19 x20 x21 x22 x23 x24 x25 x26 x27 x8 x7 x6 x5 x31 x4 x3 x2 x1 x0) (and (|app_without_checking_157[0:14][0:4]| x14 x15 x16 x17 x18 x19 x20 x21 x22 x23 x24 x25 x26 x27 x28 x29 x30 x31 x32) (and (<= (+ 1 x18) 0) (and (<= (+ 1 x29) 0) (and (= x18 x10) (and (= x18 x29) (and (= x23 x11) (and (= x23 x30) (and (= x32 x12) (and (= x32 x31) (and x28 x9))))))))))) (|app_without_checking_157[0:14][0:5][0:0][0:4]| x14 x15 x16 x17 x18 x19 x20 x21 x22 x23 x24 x25 x26 x27 x28 x29 x30 x31 x32 x9 x10 x11 x12 x13))))
(assert (forall ((x6 Bool)(x7 Int)(x8 Int)(x9 Int)(x10 Int)(var235 Int)(x2 Bool)(x3 Int)(x4 Int)(x5 Int)(x1 Int)(var236 Int)(var237 Int)(var238 Int)(var239 Int)) (=> (and (|app_without_checking_157[0:14][0:4]| x2 x3 x4 x5 x1 x2 x3 x4 x5 0 x2 x3 x4 x5 x6 x7 x8 x9 x10) (and (|f[0:4]| x2 x3 x4 x5 var235) (and (|f[0:5][0:0][0:4]| x2 x3 x4 x5 var235 false var236 var237 var238 var239) (>= var235 1)))) (|f[0:4]| x6 x7 x8 x9 x10))))
(assert (forall ((x4 Bool)(x5 Int)(x6 Int)(x7 Int)(x8 Int)(x9 Bool)(x10 Int)(x11 Int)(x12 Int)(x13 Int)(x14 Bool)(x15 Int)(x16 Int)(x17 Int)(x3 Bool)(x2 Int)(x1 Int)(x22 Int)(x0 Int)(x18 Bool)(x19 Int)(x20 Int)(x21 Int)(x23 Bool)(x24 Int)(x25 Int)(x26 Int)(x27 Int)) (=> (and (|app_without_checking_157[0:24]| x4 x5 x6 x7 x8 x9 x10 x11 x12 x13 x14 x15 x16 x17 x18 x19 x20 x21 x22 x23 x24 x25 x26 x27) (and (<= (+ 1 x8) 0) (and (= x22 x0) (and (= x1 x13) (and (= x2 x8) x3))))) (|app_without_checking_157[0:14][0:4]| x4 x5 x6 x7 x8 x9 x10 x11 x12 x13 x14 x15 x16 x17 x3 x2 x1 x22 x0))))
(assert (forall ((x20 Bool)(x21 Int)(x22 Int)(x23 Int)(x1 Int)(x16 Bool)(x17 Int)(x18 Int)(x19 Int)(x0 Int)(x12 Bool)(x13 Int)(x14 Int)(x15 Int)(x8 Bool)(x9 Int)(x10 Int)(x11 Int)(x7 Int)(x2 Bool)(x4 Int)(x3 Int)(x5 Int)(x6 Int)(var240 Int)) (=> (and (|f[0:4]| x20 x21 x22 x23 var240) (and (|f[0:5][0:0][0:4]| x20 x21 x22 x23 var240 x2 x4 x3 x5 x6) (and (= x0 0) (and (= (+ 1 x7) var240) (and (>= var240 1) (and (= x21 x17) (and (= x21 x13) (and (= x21 x9) (and (= x22 x18) (and (= x22 x14) (and (= x22 x10) (and (= x23 x19) (and (= x23 x15) (and (= x23 x11) (and (not x2) (and (= x20 x16) (and (= x20 x12) (= x20 x8)))))))))))))))))) (|app_without_checking_157[0:24]| x20 x21 x22 x23 x1 x16 x17 x18 x19 x0 x12 x13 x14 x15 x8 x9 x10 x11 x7 x2 x4 x3 x5 x6))))
(assert (forall ((x6 Bool)(x7 Int)(x8 Int)(x9 Int)(x10 Int)(x1 Bool)(x2 Int)(x3 Int)(x4 Int)(x5 Int)) (=> (and (|f[0:4]| x6 x7 x8 x9 x10) (and (= x7 0) (and (= x8 0) (and (= x9 0) (and (= x2 x7) (and (= x3 x8) (and (= x4 x9) (and (not x6) (not x1))))))))) (|f[0:5][0:0][0:4]| x6 x7 x8 x9 x10 x1 x2 x3 x4 x5))))
(assert (forall ((x3 Bool)(x1 Int)(x0 Int)(x2 Int)(x5 Int)) (=> (and (= x1 0) (and (= x0 0) (and (= x2 0) (not x3)))) (|f[0:4]| x3 x1 x0 x2 x5))))
(check-sat)
(get-model)
(exit)
